NAME: random-71-15639
TYPE: TSP
COMMENT: size=71 seed=15639
DIMENSION: 144
EDGE_WEIGHT_TYPE: EUC_2D
NODE_COORD_SECTION
+0 673 232
-0 673 232
+1 113 480
-1 71 490
+2 716 852
-2 101 854
+3 623 458
-3 801 316
+4 41 191
-4 348 953
+5 354 211
-5 534 826
+6 89 907
-6 875 420
+7 689 710
-7 291 574
+8 880 539
-8 973 436
+9 810 848
-9 775 308
+10 552 606
-10 380 397
+11 632 63
-11 626 904
+12 158 348
-12 50 30
+13 866 763
-13 6 322
+14 860 658
-14 977 308
+15 249 744
-15 933 453
+16 629 992
-16 489 266
+17 858 196
-17 412 330
+18 314 30
-18 987 985
+19 652 903
-19 452 376
+20 423 946
-20 475 537
+21 397 890
-21 184 588
+22 579 710
-22 170 467
+23 312 129
-23 660 864
+24 256 823
-24 365 104
+25 45 84
-25 892 256
+26 155 582
-26 547 831
+27 240 291
-27 971 415
+28 624 115
-28 281 726
+29 532 392
-29 33 35
+30 106 705
-30 804 199
+31 665 852
-31 658 773
+32 471 716
-32 401 776
+33 301 643
-33 762 858
+34 800 339
-34 368 458
+35 494 182
-35 623 971
+36 705 186
-36 561 283
+37 944 401
-37 476 212
+38 115 613
-38 282 370
+39 964 592
-39 808 841
+40 472 184
-40 571 864
+41 461 719
-41 737 329
+42 275 74
-42 417 816
+43 630 790
-43 499 699
+44 271 137
-44 288 493
+45 513 432
-45 611 631
+46 256 213
-46 628 57
+47 680 466
-47 626 488
+48 982 790
-48 835 63
+49 772 964
-49 991 769
+50 138 798
-50 963 922
+51 677 757
-51 861 972
+52 292 5
-52 74 457
+53 168 626
-53 700 252
+54 578 200
-54 726 569
+55 233 782
-55 290 571
+56 534 559
-56 159 607
+57 644 594
-57 181 247
+58 684 904
-58 271 787
+59 683 760
-59 88 335
+60 625 973
-60 128 429
+61 987 149
-61 589 918
+62 691 76
-62 493 271
+63 494 105
-63 812 307
+64 286 88
-64 439 186
+65 99 105
-65 485 154
+66 275 782
-66 938 807
+67 194 495
-67 733 229
+68 688 714
-68 268 509
+69 669 930
-69 368 286
+70 313 396
-70 653 11
+71 104 566
-71 274 313
PRECEDENCE_SECTION
+0 -0
+1 -1
+2 -2
+3 -3
+4 -4
+5 -5
+6 -6
+7 -7
+8 -8
+9 -9
+10 -10
+11 -11
+12 -12
+13 -13
+14 -14
+15 -15
+16 -16
+17 -17
+18 -18
+19 -19
+20 -20
+21 -21
+22 -22
+23 -23
+24 -24
+25 -25
+26 -26
+27 -27
+28 -28
+29 -29
+30 -30
+31 -31
+32 -32
+33 -33
+34 -34
+35 -35
+36 -36
+37 -37
+38 -38
+39 -39
+40 -40
+41 -41
+42 -42
+43 -43
+44 -44
+45 -45
+46 -46
+47 -47
+48 -48
+49 -49
+50 -50
+51 -51
+52 -52
+53 -53
+54 -54
+55 -55
+56 -56
+57 -57
+58 -58
+59 -59
+60 -60
+61 -61
+62 -62
+63 -63
+64 -64
+65 -65
+66 -66
+67 -67
+68 -68
+69 -69
+70 -70
+71 -71
EOF
